c This graph is produced by Sof A. Lee
c Experiment on graph colouring using phase coupled oscillators
c Date: 17/02/2008 11:47:32 PM
p edge 12 30
e 1 12
e 1 3
e 1 10
e 1 5
e 1 6
e 2 9
e 2 4
e 2 6
e 2 10
e 2 7
e 3 10
e 3 12
e 3 8
e 3 7
e 4 8
e 4 7
e 4 11
e 4 9
e 5 11
e 5 12
e 5 6
e 5 9
e 6 10
e 6 9
e 7 8
e 7 10
e 8 12
e 8 11
e 9 11
e 11 12
